jobs  (incl. supersource/sink ):	102
RESOURCES
- renewable                 : 4 R
- nonrenewable              : 2 N
- doubly constrained        : 0 D
************************************************************************
PRECEDENCE RELATIONS:
jobnr.    #modes  #successors   successors
1	1	30		2 3 4 5 6 7 8 9 10 11 12 13 14 15 16 18 19 20 21 22 23 24 25 26 27 28 33 35 40 59 
2	3	19		100 98 97 93 66 64 58 57 53 52 48 47 46 43 41 39 38 32 17 
3	3	19		99 97 95 67 66 63 57 56 54 53 50 49 48 45 44 43 39 38 29 
4	3	20		101 100 98 95 93 85 63 61 56 55 53 51 49 48 47 46 43 39 38 34 
5	3	20		99 98 97 95 90 89 86 82 61 60 56 55 52 51 46 45 43 38 37 31 
6	3	13		97 92 67 66 64 62 56 55 54 53 39 32 29 
7	3	19		101 97 93 91 88 86 67 66 64 63 61 57 56 54 53 47 46 38 32 
8	3	16		100 96 95 93 81 65 62 58 56 54 48 47 46 42 36 34 
9	3	24		100 99 96 95 93 87 86 85 83 74 64 63 62 58 56 55 53 52 50 49 48 47 43 42 
10	3	15		99 97 95 93 92 89 85 66 64 63 61 55 54 44 30 
11	3	16		96 95 93 88 84 83 80 79 64 63 60 55 45 44 43 38 
12	3	14		97 86 85 83 80 71 67 64 63 60 57 53 39 38 
13	3	13		99 96 92 87 66 65 63 61 55 49 47 39 34 
14	3	21		95 94 93 91 90 88 87 86 85 82 81 80 79 65 64 61 55 53 48 47 46 
15	3	17		101 96 91 88 85 84 83 80 79 74 72 63 61 60 55 43 38 
16	3	15		96 93 90 87 86 85 83 78 76 62 60 58 54 42 39 
17	3	25		101 94 92 91 90 89 88 87 86 83 82 81 80 79 77 76 71 69 68 65 63 62 61 60 49 
18	3	16		97 93 91 88 82 81 80 76 72 62 61 60 56 55 54 37 
19	3	13		98 96 90 89 87 86 85 76 64 62 47 42 39 
20	3	20		101 99 94 92 91 90 88 87 85 83 80 79 78 77 74 63 62 61 47 43 
21	3	11		99 95 92 82 81 80 79 61 58 47 34 
22	3	21		98 96 95 93 92 91 88 87 86 85 84 82 81 80 79 76 75 70 56 55 47 
23	3	19		100 96 93 90 88 86 83 80 77 75 74 69 65 63 61 55 53 52 47 
24	3	11		93 85 83 82 81 79 74 61 48 47 38 
25	3	16		96 95 93 92 91 90 89 86 85 84 82 66 64 61 47 43 
26	3	13		96 95 94 85 79 75 74 66 61 56 47 44 43 
27	3	18		98 91 90 87 82 81 80 79 77 76 74 71 68 64 63 61 60 49 
28	3	17		101 91 90 89 86 85 83 82 80 79 78 77 74 72 61 60 43 
29	3	16		96 93 90 89 87 86 84 83 82 80 79 77 69 61 52 47 
30	3	15		90 88 87 83 82 80 79 78 77 75 70 60 57 52 43 
31	3	16		100 93 92 91 88 87 83 80 79 78 75 74 72 69 68 54 
32	3	13		95 94 84 83 79 78 77 76 72 71 68 60 45 
33	3	14		93 87 84 83 82 80 79 74 73 71 69 62 61 52 
34	3	14		90 88 86 83 78 77 76 74 72 71 70 68 64 60 
35	3	14		98 95 94 92 91 90 89 84 82 80 79 74 73 70 
36	3	13		94 91 90 85 84 80 77 75 74 71 69 68 63 
37	3	10		96 85 83 79 78 77 73 69 68 67 
38	3	9		94 92 87 77 76 75 69 65 62 
39	3	10		91 88 84 82 81 79 75 74 72 68 
40	3	10		94 90 89 82 81 77 74 71 69 68 
41	3	8		78 76 75 74 73 72 69 68 
42	3	7		84 82 79 77 69 68 61 
43	3	6		81 76 73 71 69 68 
44	3	6		86 82 76 72 70 68 
45	3	5		85 81 75 74 69 
46	3	5		83 74 71 69 68 
47	3	4		72 71 68 60 
48	3	4		92 89 75 72 
49	3	4		84 78 75 72 
50	3	4		81 80 71 68 
51	3	4		80 75 69 68 
52	3	3		76 72 68 
53	3	3		89 73 68 
54	3	3		84 71 70 
55	3	2		78 73 
56	3	2		77 68 
57	3	2		74 69 
58	3	2		89 75 
59	3	2		78 75 
60	3	1		73 
61	3	1		70 
62	3	1		70 
63	3	1		70 
64	3	1		69 
65	3	1		78 
66	3	1		80 
67	3	1		74 
68	3	1		102 
69	3	1		102 
70	3	1		102 
71	3	1		102 
72	3	1		102 
73	3	1		102 
74	3	1		102 
75	3	1		102 
76	3	1		102 
77	3	1		102 
78	3	1		102 
79	3	1		102 
80	3	1		102 
81	3	1		102 
82	3	1		102 
83	3	1		102 
84	3	1		102 
85	3	1		102 
86	3	1		102 
87	3	1		102 
88	3	1		102 
89	3	1		102 
90	3	1		102 
91	3	1		102 
92	3	1		102 
93	3	1		102 
94	3	1		102 
95	3	1		102 
96	3	1		102 
97	3	1		102 
98	3	1		102 
99	3	1		102 
100	3	1		102 
101	3	1		102 
102	1	0		
************************************************************************
REQUESTS/DURATIONS
jobnr.	mode	dur	R1	R2	R3	R4	N1	N2	
------------------------------------------------------------------------
1	1	0	0	0	0	0	0	0	
2	1	18	4	4	1	4	10	21	
	2	19	4	4	1	3	6	10	
	3	28	4	3	1	2	2	10	
3	1	1	4	3	2	5	29	25	
	2	2	3	2	1	2	28	22	
	3	23	2	2	1	2	28	21	
4	1	10	4	2	5	5	9	12	
	2	23	4	1	4	3	6	11	
	3	24	3	1	2	2	4	7	
5	1	1	1	5	5	1	15	8	
	2	28	1	3	5	1	12	6	
	3	30	1	2	5	1	6	6	
6	1	1	4	2	5	4	22	9	
	2	13	2	2	3	3	21	7	
	3	25	2	2	3	3	20	3	
7	1	9	3	5	3	2	23	25	
	2	18	3	3	2	1	19	19	
	3	22	3	3	1	1	13	13	
8	1	3	4	2	4	5	11	23	
	2	4	2	1	4	3	8	20	
	3	30	2	1	4	3	6	14	
9	1	6	1	2	3	1	15	5	
	2	19	1	2	3	1	13	5	
	3	20	1	2	3	1	10	3	
10	1	1	4	5	4	3	24	10	
	2	11	3	5	3	3	21	7	
	3	13	3	5	2	2	13	4	
11	1	9	3	4	3	5	13	22	
	2	20	3	4	1	3	9	18	
	3	26	3	3	1	3	8	15	
12	1	2	3	2	3	3	21	21	
	2	25	3	1	2	3	15	20	
	3	26	1	1	2	3	10	19	
13	1	2	4	4	4	3	14	14	
	2	20	4	2	3	3	10	9	
	3	29	4	2	2	3	8	8	
14	1	12	5	4	4	3	10	8	
	2	21	5	2	2	3	9	7	
	3	22	5	2	2	1	9	6	
15	1	7	4	4	2	3	9	21	
	2	18	4	2	2	3	7	21	
	3	24	3	2	2	3	6	21	
16	1	21	4	3	2	4	14	22	
	2	22	2	2	1	3	13	19	
	3	28	2	2	1	2	13	14	
17	1	1	4	2	5	5	24	19	
	2	5	4	1	5	4	23	19	
	3	28	4	1	5	3	23	19	
18	1	10	5	3	3	5	19	5	
	2	13	4	2	1	5	19	4	
	3	19	4	2	1	5	18	4	
19	1	1	3	4	2	4	13	19	
	2	7	1	4	2	4	12	12	
	3	28	1	3	1	4	12	7	
20	1	17	3	3	4	5	21	24	
	2	23	2	3	4	4	21	21	
	3	26	2	3	3	4	19	13	
21	1	9	4	3	2	2	28	19	
	2	11	4	2	2	2	17	18	
	3	23	4	1	2	2	4	17	
22	1	5	4	3	2	3	19	29	
	2	16	3	2	2	2	14	15	
	3	22	3	2	1	1	6	10	
23	1	14	5	4	2	4	25	6	
	2	19	4	3	2	4	24	6	
	3	28	3	3	2	4	24	6	
24	1	4	5	2	4	5	23	22	
	2	12	3	2	2	3	17	16	
	3	15	3	2	2	3	10	12	
25	1	14	3	4	5	1	26	2	
	2	18	2	3	3	1	23	1	
	3	29	2	2	3	1	19	1	
26	1	1	4	4	4	4	11	30	
	2	22	2	2	4	4	9	20	
	3	23	2	2	3	4	6	11	
27	1	6	4	5	3	3	30	24	
	2	9	2	3	2	3	13	20	
	3	14	2	2	2	2	6	16	
28	1	15	3	4	4	3	24	30	
	2	16	3	3	3	3	22	16	
	3	18	2	2	1	3	21	7	
29	1	22	4	5	2	5	11	4	
	2	25	3	3	2	3	11	2	
	3	30	2	1	2	2	11	2	
30	1	11	4	2	2	3	16	22	
	2	26	3	2	1	2	16	22	
	3	29	3	1	1	2	15	22	
31	1	10	3	5	4	4	29	27	
	2	13	2	3	2	4	25	23	
	3	18	2	3	1	4	20	19	
32	1	18	4	4	2	5	25	9	
	2	22	3	4	2	4	16	5	
	3	29	2	3	2	4	6	4	
33	1	14	4	3	5	1	21	21	
	2	19	2	1	4	1	19	18	
	3	24	2	1	3	1	19	17	
34	1	12	3	4	3	3	23	19	
	2	19	2	3	2	2	15	16	
	3	23	2	1	1	1	4	14	
35	1	3	5	3	4	2	21	13	
	2	10	4	3	3	2	16	8	
	3	23	4	3	2	2	13	5	
36	1	8	3	3	4	4	16	2	
	2	17	3	2	2	4	15	2	
	3	27	3	2	1	4	13	2	
37	1	3	3	5	4	4	19	29	
	2	14	3	3	3	3	15	17	
	3	22	3	1	2	2	7	10	
38	1	1	4	5	3	4	17	21	
	2	5	4	3	2	3	16	15	
	3	23	3	3	2	2	15	7	
39	1	5	4	2	1	2	19	29	
	2	23	3	2	1	2	16	16	
	3	27	2	2	1	2	13	11	
40	1	13	2	3	2	4	23	22	
	2	17	2	3	2	3	21	22	
	3	21	1	2	1	3	18	14	
41	1	3	2	4	4	4	22	24	
	2	12	2	4	3	3	12	23	
	3	15	2	4	3	3	9	20	
42	1	17	5	4	5	4	27	16	
	2	19	5	3	4	3	16	13	
	3	22	5	3	4	2	9	12	
43	1	9	2	3	3	5	24	28	
	2	10	2	3	3	4	20	23	
	3	20	2	3	3	4	15	21	
44	1	2	5	3	5	3	30	15	
	2	5	3	3	4	3	22	13	
	3	7	3	3	4	3	19	13	
45	1	12	1	3	3	4	29	17	
	2	18	1	3	3	4	27	13	
	3	26	1	2	2	3	26	7	
46	1	4	3	2	5	3	28	6	
	2	7	2	1	4	3	20	4	
	3	24	1	1	4	2	10	1	
47	1	21	5	2	4	5	24	16	
	2	26	5	2	4	5	23	16	
	3	28	5	2	4	5	23	15	
48	1	6	4	2	4	5	18	10	
	2	19	2	2	3	3	17	9	
	3	28	2	2	3	3	14	8	
49	1	8	4	3	4	5	25	17	
	2	16	3	3	4	3	19	10	
	3	27	3	3	4	2	17	4	
50	1	23	3	4	5	3	14	16	
	2	24	2	3	5	3	10	16	
	3	25	1	2	5	3	4	9	
51	1	8	2	3	4	1	23	7	
	2	9	2	2	3	1	21	6	
	3	11	2	2	3	1	21	3	
52	1	5	4	4	3	3	13	7	
	2	23	4	3	2	2	6	4	
	3	24	4	3	1	1	5	4	
53	1	9	3	4	1	4	19	20	
	2	25	3	4	1	4	15	7	
	3	29	3	3	1	4	13	1	
54	1	3	4	4	3	3	27	11	
	2	10	3	4	3	3	25	5	
	3	29	3	4	2	3	25	1	
55	1	5	4	5	1	3	12	9	
	2	11	3	3	1	2	9	7	
	3	19	3	1	1	1	9	7	
56	1	7	1	4	3	5	26	25	
	2	12	1	3	2	3	25	19	
	3	22	1	1	2	2	24	16	
57	1	4	4	4	3	4	23	15	
	2	7	3	3	2	4	23	7	
	3	13	1	2	2	3	20	3	
58	1	22	4	1	5	5	13	21	
	2	26	3	1	5	5	9	21	
	3	29	3	1	5	5	7	21	
59	1	13	2	5	2	1	23	20	
	2	17	2	4	2	1	13	20	
	3	28	2	4	1	1	6	20	
60	1	6	4	3	1	4	19	26	
	2	19	4	1	1	4	19	15	
	3	25	2	1	1	3	16	6	
61	1	3	3	4	4	3	7	7	
	2	4	2	3	2	2	7	6	
	3	13	2	1	2	2	5	6	
62	1	16	4	4	5	4	20	19	
	2	17	3	4	3	4	11	15	
	3	23	2	4	2	4	6	12	
63	1	7	5	2	3	4	6	21	
	2	19	5	2	2	2	4	19	
	3	21	5	2	2	2	1	12	
64	1	21	5	4	3	2	11	20	
	2	27	4	3	2	2	8	17	
	3	28	4	3	1	2	7	15	
65	1	11	4	3	5	3	4	25	
	2	20	4	3	4	3	3	24	
	3	28	4	1	3	2	3	23	
66	1	8	2	2	1	4	20	27	
	2	13	2	1	1	4	14	25	
	3	23	2	1	1	4	7	24	
67	1	11	3	4	3	5	25	8	
	2	27	2	3	3	4	18	8	
	3	29	2	2	3	3	16	8	
68	1	7	5	4	4	3	12	18	
	2	28	5	3	2	1	9	17	
	3	29	5	2	1	1	5	15	
69	1	4	2	2	5	5	15	27	
	2	19	2	2	3	4	13	26	
	3	26	2	1	3	3	13	25	
70	1	2	3	4	5	4	21	18	
	2	12	3	4	4	2	14	11	
	3	14	3	2	4	2	10	11	
71	1	1	1	3	4	3	22	21	
	2	8	1	2	4	2	21	11	
	3	19	1	2	3	2	14	3	
72	1	1	5	5	2	4	26	15	
	2	14	3	4	2	3	22	11	
	3	30	3	2	2	2	16	9	
73	1	2	5	5	1	5	11	24	
	2	5	4	4	1	4	8	21	
	3	30	3	3	1	4	1	20	
74	1	2	4	4	2	4	25	6	
	2	17	4	4	1	4	12	3	
	3	26	4	4	1	4	9	3	
75	1	5	3	3	2	4	28	6	
	2	23	2	2	1	3	24	6	
	3	24	2	2	1	3	24	5	
76	1	17	3	5	4	1	22	17	
	2	19	2	4	2	1	11	14	
	3	20	2	2	1	1	6	14	
77	1	12	3	4	2	4	9	13	
	2	20	2	3	2	3	5	7	
	3	26	1	3	2	3	2	7	
78	1	2	2	2	5	3	16	18	
	2	10	1	2	4	2	13	17	
	3	25	1	2	3	1	10	12	
79	1	18	5	3	2	1	22	19	
	2	19	4	2	2	1	13	18	
	3	28	4	2	1	1	11	17	
80	1	9	1	3	3	3	23	18	
	2	10	1	2	3	1	19	12	
	3	16	1	2	1	1	13	10	
81	1	6	1	3	3	3	11	28	
	2	15	1	2	3	3	7	25	
	3	26	1	2	2	2	4	25	
82	1	1	2	4	4	3	16	18	
	2	2	1	3	4	2	12	13	
	3	11	1	2	4	1	10	3	
83	1	3	4	3	1	3	17	9	
	2	4	4	1	1	3	14	7	
	3	20	4	1	1	2	7	7	
84	1	5	2	2	2	1	11	29	
	2	20	2	1	2	1	9	16	
	3	26	2	1	1	1	4	7	
85	1	1	4	4	3	3	21	18	
	2	7	3	2	3	3	19	18	
	3	18	3	1	3	3	19	17	
86	1	21	4	4	5	5	10	3	
	2	25	3	3	4	5	8	2	
	3	26	1	3	3	5	8	1	
87	1	7	5	4	5	5	7	20	
	2	10	4	4	3	5	6	20	
	3	22	4	4	2	5	5	19	
88	1	5	2	2	4	3	19	28	
	2	19	1	2	2	3	19	19	
	3	20	1	1	2	1	19	4	
89	1	23	2	1	2	3	19	13	
	2	25	2	1	2	3	12	12	
	3	28	2	1	2	3	8	12	
90	1	18	4	4	4	3	12	20	
	2	20	4	2	2	3	10	17	
	3	21	4	1	2	3	10	11	
91	1	6	5	5	1	3	12	27	
	2	19	3	4	1	2	12	19	
	3	21	2	4	1	1	12	9	
92	1	6	4	2	4	5	15	26	
	2	25	3	1	3	3	7	26	
	3	26	1	1	2	2	3	26	
93	1	12	5	5	2	5	26	24	
	2	13	4	3	2	2	26	23	
	3	24	3	2	1	1	25	22	
94	1	19	3	5	3	5	12	29	
	2	21	3	4	1	5	12	23	
	3	22	3	2	1	5	12	15	
95	1	7	1	3	2	3	14	22	
	2	24	1	2	2	3	13	12	
	3	28	1	2	2	1	8	8	
96	1	18	2	4	3	4	23	26	
	2	23	2	4	2	2	11	16	
	3	30	2	4	1	2	7	5	
97	1	7	3	5	4	2	23	20	
	2	26	2	3	3	2	18	20	
	3	28	2	3	2	2	8	19	
98	1	6	2	4	1	1	16	9	
	2	10	2	3	1	1	15	7	
	3	18	2	3	1	1	11	3	
99	1	1	3	4	3	4	20	24	
	2	6	3	4	2	3	18	20	
	3	16	2	4	2	3	10	16	
100	1	8	4	5	3	2	22	15	
	2	9	3	3	3	2	17	11	
	3	24	1	1	3	2	15	9	
101	1	7	4	4	1	5	29	24	
	2	10	2	4	1	4	27	24	
	3	23	2	4	1	4	25	24	
102	1	0	0	0	0	0	0	0	
************************************************************************

 RESOURCE AVAILABILITIES 
	R 1	R 2	R 3	R 4	N 1	N 2
	191	191	189	182	1705	1628

************************************************************************
